c This is UnifRandomKSATGenerator
c uniform random 3-SAT generated instance with: 
c clause length: 3 
c number variables: 20 
c number clauses: 85 
c clause to variable ratio: 4.27 
c random number generator name: SHA1PRNG 
c random number generator provider: SUN 
c random number generator seed: 3727207399517419268 
p cnf 20 85
-3 11 7 0
-1 -19 20 0
-1 -3 14 0
-18 -20 -15 0
18 13 15 0
17 20 14 0
-17 -19 20 0
10 19 -14 0
-1 -12 -13 0
-17 -12 6 0
-18 -6 13 0
-4 6 15 0
-5 4 15 0
16 -4 -13 0
17 -12 -13 0
17 -11 19 0
-1 5 7 0
2 3 4 0
13 -7 -15 0
12 4 7 0
18 2 11 0
-5 13 -6 0
-19 18 -15 0
-18 4 7 0
1 -6 -15 0
4 -6 7 0
-19 11 -6 0
-18 -4 12 0
1 2 3 0
9 -10 -4 0
-17 -10 12 0
9 18 20 0
16 -12 -8 0
-1 -17 2 0
1 10 -20 0
-11 3 6 0
-18 19 5 0
9 -8 15 0
16 9 -8 0
19 3 -15 0
1 18 -16 0
3 -7 -8 0
1 -12 15 0
1 13 -8 0
-12 13 -7 0
11 -5 -7 0
1 -4 19 0
17 1 3 0
8 9 17 0
12 13 -15 0
2 5 -16 0
-10 -14 -16 0
-1 -2 -6 0
16 4 -15 0
2 19 14 0
8 3 15 0
-4 -7 15 0
8 19 3 0
-17 -18 -12 0
18 11 -16 0
1 -20 -13 0
-11 20 13 0
-2 11 7 0
10 2 7 0
9 -5 -8 0
1 11 5 0
-1 9 -2 0
11 -5 -8 0
16 -9 -10 0
-14 -7 -8 0
-1 -2 -11 0
-17 2 10 0
-18 3 -8 0
-1 -14 -8 0
-11 12 6 0
-1 18 19 0
-11 19 6 0
-3 20 14 0
16 -17 -6 0
9 14 15 0
13 14 -16 0
-1 2 -11 0
3 -5 4 0
-9 1 -5 0
-17 1 -19 0
